c FILE /home/rafael/Documents/HappySet/MIHS/inputs/happygen/output/graph_scale_free_k4_p0.4_v100_20241127_083831.txt
c SOURCE This is a scale-free graph formed for the happy graph colouring problem.
c DESCRIPTION It was generated using the problem generator of Rhyd Lewis
c
c GRAPH STATS
c Seed                             = 755733482
c Number of Nodes                  = 100
c Number of colours k              = 4
c Number of pre-assignments        = 40
c Number of links per new node     = 5
c Density                          = 0.0979798
c 
c The degrees of nodes 1 to 100, respectively, are as follows 
c [32, 28, 27, 26, 26, 26, 24, 23, 21, 20, 19, 19, 18, 17, 15, 15, 14, 14, 13, 13, 13, 12, 11, 11, 11, 11, 
c  10, 10, 10, 10, 10, 10, 10, 10, 9, 9, 9, 9, 9, 8, 8, 8, 8, 8, 8, 7, 7, 7, 7, 7, 7, 
c  7, 7, 7, 7, 7, 7, 6, 6, 6, 6, 6, 6, 6, 6, 6, 6, 6, 6, 6, 6, 6, 6, 6, 6, 6, 
c  5, 5, 5, 5, 5, 5, 5, 5, 5, 5, 5, 5, 5, 5, 5, 5, 5, 5, 5, 5, 5, 5, 5, 5] 
c  
p edge 100 485 4
e 1 2
e 1 3
e 1 5
e 1 7
e 1 9
e 1 11
e 1 13
e 1 15
e 1 16
e 1 19
e 1 20
e 1 23
e 1 25
e 1 28
e 1 29
e 1 32
e 1 34
e 1 35
e 1 38
e 1 43
e 1 48
e 1 56
e 1 59
e 1 60
e 1 61
e 1 70
e 1 80
e 1 91
e 1 92
e 1 96
e 1 98
e 1 99
e 2 3
e 2 4
e 2 5
e 2 7
e 2 8
e 2 9
e 2 10
e 2 11
e 2 12
e 2 13
e 2 14
e 2 17
e 2 20
e 2 22
e 2 24
e 2 25
e 2 32
e 2 36
e 2 37
e 2 39
e 2 40
e 2 43
e 2 47
e 2 51
e 2 57
e 2 70
e 2 79
e 3 4
e 3 5
e 3 7
e 3 8
e 3 9
e 3 10
e 3 13
e 3 14
e 3 16
e 3 23
e 3 27
e 3 31
e 3 42
e 3 44
e 3 46
e 3 48
e 3 55
e 3 58
e 3 59
e 3 61
e 3 66
e 3 77
e 3 81
e 3 83
e 3 86
e 4 5
e 4 6
e 4 7
e 4 8
e 4 9
e 4 11
e 4 12
e 4 15
e 4 17
e 4 19
e 4 22
e 4 30
e 4 37
e 4 48
e 4 50
e 4 55
e 4 64
e 4 74
e 4 75
e 4 81
e 4 88
e 4 89
e 4 96
e 4 100
e 5 6
e 5 7
e 5 8
e 5 10
e 5 11
e 5 13
e 5 16
e 5 21
e 5 36
e 5 40
e 5 43
e 5 46
e 5 47
e 5 48
e 5 55
e 5 58
e 5 64
e 5 74
e 5 75
e 5 86
e 5 89
e 5 94
e 6 8
e 6 9
e 6 14
e 6 16
e 6 17
e 6 18
e 6 22
e 6 27
e 6 29
e 6 32
e 6 33
e 6 38
e 6 47
e 6 52
e 6 57
e 6 63
e 6 65
e 6 68
e 6 80
e 6 81
e 6 86
e 6 90
e 6 91
e 6 95
e 7 8
e 7 9
e 7 10
e 7 14
e 7 19
e 7 20
e 7 28
e 7 30
e 7 32
e 7 35
e 7 40
e 7 49
e 7 54
e 7 65
e 7 66
e 7 68
e 7 73
e 7 82
e 7 96
e 8 9
e 8 11
e 8 14
e 8 17
e 8 22
e 8 27
e 8 30
e 8 36
e 8 37
e 8 47
e 8 52
e 8 65
e 8 74
e 8 75
e 8 77
e 8 91
e 8 100
e 9 10
e 9 12
e 9 15
e 9 19
e 9 21
e 9 24
e 9 26
e 9 28
e 9 33
e 9 40
e 9 49
e 9 52
e 9 56
e 9 71
e 10 12
e 10 13
e 10 15
e 10 23
e 10 27
e 10 33
e 10 36
e 10 37
e 10 39
e 10 43
e 10 61
e 10 72
e 10 79
e 10 82
e 10 90
e 11 12
e 11 14
e 11 17
e 11 19
e 11 25
e 11 29
e 11 30
e 11 31
e 11 33
e 11 35
e 11 50
e 11 68
e 11 90
e 11 92
e 12 20
e 12 41
e 12 42
e 12 43
e 12 49
e 12 55
e 12 60
e 12 63
e 12 65
e 12 66
e 12 69
e 12 87
e 12 95
e 12 97
e 13 20
e 13 23
e 13 24
e 13 28
e 13 29
e 13 30
e 13 32
e 13 46
e 13 58
e 13 69
e 13 79
e 13 83
e 13 93
e 14 21
e 14 22
e 14 23
e 14 27
e 14 37
e 14 40
e 14 54
e 14 67
e 14 80
e 14 84
e 14 95
e 15 22
e 15 26
e 15 42
e 15 46
e 15 47
e 15 51
e 15 53
e 15 54
e 15 58
e 15 70
e 15 99
e 16 24
e 16 39
e 16 49
e 16 67
e 16 72
e 16 74
e 16 85
e 16 87
e 16 93
e 16 95
e 16 97
e 17 21
e 17 26
e 17 28
e 17 33
e 17 35
e 17 45
e 17 60
e 17 62
e 17 90
e 18 19
e 18 20
e 18 22
e 18 53
e 18 54
e 18 57
e 18 61
e 18 67
e 18 72
e 18 78
e 18 79
e 18 81
e 18 98
e 19 29
e 19 34
e 19 36
e 19 44
e 19 45
e 19 58
e 19 64
e 20 26
e 20 38
e 20 42
e 20 45
e 20 50
e 20 53
e 20 87
e 21 26
e 21 27
e 21 38
e 21 41
e 21 51
e 21 54
e 21 59
e 21 68
e 21 97
e 22 41
e 22 44
e 22 50
e 22 56
e 22 86
e 23 56
e 23 60
e 23 63
e 23 77
e 23 82
e 23 92
e 24 28
e 24 30
e 24 52
e 24 61
e 24 85
e 24 91
e 24 94
e 25 35
e 25 40
e 25 42
e 25 57
e 25 66
e 25 78
e 25 80
e 25 96
e 26 38
e 26 48
e 26 53
e 26 73
e 26 92
e 26 98
e 27 31
e 27 35
e 27 59
e 27 76
e 28 72
e 28 76
e 28 77
e 28 86
e 29 31
e 29 56
e 29 59
e 29 88
e 29 93
e 30 41
e 30 67
e 30 73
e 30 81
e 31 34
e 31 36
e 31 55
e 31 71
e 31 93
e 31 100
e 32 64
e 32 77
e 32 78
e 32 80
e 32 98
e 33 34
e 33 45
e 33 49
e 33 63
e 33 99
e 34 37
e 34 61
e 34 69
e 34 94
e 34 96
e 34 99
e 35 39
e 35 76
e 35 84
e 36 41
e 36 46
e 36 71
e 37 73
e 37 74
e 37 82
e 38 51
e 38 62
e 38 68
e 38 89
e 39 52
e 39 58
e 39 62
e 39 78
e 39 84
e 40 85
e 40 100
e 41 45
e 41 72
e 41 78
e 42 60
e 42 63
e 42 82
e 43 50
e 43 53
e 43 89
e 44 49
e 44 51
e 44 64
e 44 65
e 44 71
e 45 79
e 45 83
e 45 99
e 46 51
e 46 100
e 47 70
e 47 93
e 48 85
e 48 87
e 49 76
e 50 66
e 50 84
e 51 62
e 52 89
e 52 95
e 53 62
e 53 90
e 54 83
e 54 88
e 55 87
e 55 94
e 56 57
e 56 75
e 57 88
e 57 92
e 59 71
e 60 85
e 62 70
e 63 94
e 64 75
e 65 67
e 66 69
e 67 69
e 68 88
e 69 91
e 70 76
e 71 73
e 72 83
e 73 84
e 74 98
e 75 97
e 76 97
n 8 4
n 12 1
n 13 3
n 14 4
n 22 4
n 26 1
n 31 2
n 38 1
n 39 4
n 40 4
n 43 1
n 45 3
n 49 1
n 52 4
n 53 1
n 56 4
n 61 1
n 64 1
n 66 1
n 67 4
n 68 1
n 70 1
n 71 2
n 72 3
n 76 1
n 77 4
n 78 4
n 79 3
n 80 4
n 81 2
n 82 3
n 83 3
n 86 4
n 88 1
n 90 1
n 91 4
n 92 1
n 94 4
n 97 1
n 98 1
